p cnf 31 514-12 -13 0
-2 -12 -13 -14 0
-2 12 13 0
-2 12 14 0
-2 13 14 0
-2 12 13 14 0
2 -12 -13 14 0
2 -12 13 -14 0
2 12 -13 -14 0
-3 -12 -13 -14 15 0
-3 -12 -13 14 -15 0
-3 -12 13 -14 -15 0
-3 12 -13 -14 -15 0
-3 12 13 14 0
-3 12 13 15 0
-3 12 14 15 0
-3 13 14 15 0
-3 12 13 14 15 0
3 -12 -13 -14 -15 0
3 -12 -13 14 15 0
3 -12 13 -14 15 0
3 -12 13 14 -15 0
3 12 -13 -14 15 0
3 12 -13 14 -15 0
3 12 13 -14 -15 0
-4 -12 -13 -14 -15 -16 0
-4 -12 -13 -14 15 16 0
-4 -12 -13 14 -15 16 0
-4 -12 -13 14 15 -16 0
-4 -12 13 -14 -15 16 0
-4 -12 13 -14 15 -16 0
-4 -12 13 14 -15 -16 0
-4 12 -13 -14 -15 16 0
-4 12 -13 -14 15 -16 0
-4 12 -13 14 -15 -16 0
-4 12 13 -14 -15 -16 0
-4 12 13 14 15 0
-4 12 13 14 16 0
-4 12 13 15 16 0
-4 12 14 15 16 0
-4 13 14 15 16 0
4 -12 -13 -14 -15 16 0
4 -12 -13 -14 15 -16 0
4 -12 -13 14 -15 -16 0
4 -12 -13 14 15 16 0
4 -12 13 -14 -15 -16 0
4 -12 13 -14 15 16 0
4 -12 13 14 -15 16 0
4 -12 13 14 15 -16 0
4 12 -13 -14 -15 -16 0
4 12 -13 -14 15 16 0
4 12 -13 14 -15 16 0
4 12 -13 14 15 -16 0
4 12 13 -14 -15 16 0
4 12 13 -14 15 -16 0
4 12 13 14 -15 -16 0
-5 -13 -14 -15 -16 -17 0
-5 -13 -14 -15 16 17 0
-5 -13 -14 15 -16 17 0
-5 -13 -14 15 16 -17 0
-5 -13 14 -15 -16 17 0
-5 -13 14 -15 16 -17 0
-5 -13 14 15 -16 -17 0
-5 13 -14 -15 -16 17 0
-5 13 -14 -15 16 -17 0
-5 13 -14 15 -16 -17 0
-5 13 14 -15 -16 -17 0
-5 13 14 15 16 0
-5 13 14 15 17 0
-5 13 14 16 17 0
-5 13 15 16 17 0
-5 14 15 16 17 0
5 -13 -14 -15 -16 17 0
5 -13 -14 -15 16 -17 0
5 -13 -14 15 -16 -17 0
5 -13 -14 15 16 17 0
5 -13 14 -15 -16 -17 0
5 -13 14 -15 16 17 0
5 -13 14 15 -16 17 0
5 -13 14 15 16 -17 0
5 13 -14 -15 -16 -17 0
5 13 -14 -15 16 17 0
5 13 -14 15 -16 17 0
5 13 -14 15 16 -17 0
5 13 14 -15 -16 17 0
5 13 14 -15 16 -17 0
5 13 14 15 -16 -17 0
-6 -14 -15 -16 -17 -18 0
-6 -14 -15 -16 17 18 0
-6 -14 -15 16 -17 18 0
-6 -14 -15 16 17 -18 0
-6 -14 15 -16 -17 18 0
-6 -14 15 -16 17 -18 0
-6 -14 15 16 -17 -18 0
-6 14 -15 -16 -17 18 0
-6 14 -15 -16 17 -18 0
-6 14 -15 16 -17 -18 0
-6 14 15 -16 -17 -18 0
-6 14 15 16 17 0
-6 14 15 16 18 0
-6 14 15 17 18 0
-6 14 16 17 18 0
-6 15 16 17 18 0
6 -14 -15 -16 -17 18 0
6 -14 -15 -16 17 -18 0
6 -14 -15 16 -17 -18 0
6 -14 -15 16 17 18 0
6 -14 15 -16 -17 -18 0
6 -14 15 -16 17 18 0
6 -14 15 16 -17 18 0
6 -14 15 16 17 -18 0
6 14 -15 -16 -17 -18 0
6 14 -15 -16 17 18 0
6 14 -15 16 -17 18 0
6 14 -15 16 17 -18 0
6 14 15 -16 -17 18 0
6 14 15 -16 17 -18 0
6 14 15 16 -17 -18 0
-7 -15 -16 -17 -18 -19 0
-7 -15 -16 -17 18 19 0
-7 -15 -16 17 -18 19 0
-7 -15 -16 17 18 -19 0
-7 -15 16 -17 -18 19 0
-7 -15 16 -17 18 -19 0
-7 -15 16 17 -18 -19 0
-7 15 -16 -17 -18 19 0
-7 15 -16 -17 18 -19 0
-7 15 -16 17 -18 -19 0
-7 15 16 -17 -18 -19 0
-7 15 16 17 18 0
-7 15 16 17 19 0
-7 15 16 18 19 0
-7 15 17 18 19 0
-7 16 17 18 19 0
7 -15 -16 -17 -18 19 0
7 -15 -16 -17 18 -19 0
7 -15 -16 17 -18 -19 0
7 -15 -16 17 18 19 0
7 -15 16 -17 -18 -19 0
7 -15 16 -17 18 19 0
7 -15 16 17 -18 19 0
7 -15 16 17 18 -19 0
7 15 -16 -17 -18 -19 0
7 15 -16 -17 18 19 0
7 15 -16 17 -18 19 0
7 15 -16 17 18 -19 0
7 15 16 -17 -18 19 0
7 15 16 -17 18 -19 0
7 15 16 17 -18 -19 0
-8 -16 -17 -18 -19 -20 0
-8 -16 -17 -18 19 20 0
-8 -16 -17 18 -19 20 0
-8 -16 -17 18 19 -20 0
-8 -16 17 -18 -19 20 0
-8 -16 17 -18 19 -20 0
-8 -16 17 18 -19 -20 0
-8 16 -17 -18 -19 20 0
-8 16 -17 -18 19 -20 0
-8 16 -17 18 -19 -20 0
-8 16 17 -18 -19 -20 0
-8 16 17 18 19 0
-8 16 17 18 20 0
-8 16 17 19 20 0
-8 16 18 19 20 0
-8 17 18 19 20 0
8 -16 -17 -18 -19 20 0
8 -16 -17 -18 19 -20 0
8 -16 -17 18 -19 -20 0
8 -16 -17 18 19 20 0
8 -16 17 -18 -19 -20 0
8 -16 17 -18 19 20 0
8 -16 17 18 -19 20 0
8 -16 17 18 19 -20 0
8 16 -17 -18 -19 -20 0
8 16 -17 -18 19 20 0
8 16 -17 18 -19 20 0
8 16 -17 18 19 -20 0
8 16 17 -18 -19 20 0
8 16 17 -18 19 -20 0
8 16 17 18 -19 -20 0
-9 -17 -18 -19 -20 -21 0
-9 -17 -18 -19 20 21 0
-9 -17 -18 19 -20 21 0
-9 -17 -18 19 20 -21 0
-9 -17 18 -19 -20 21 0
-9 -17 18 -19 20 -21 0
-9 -17 18 19 -20 -21 0
-9 17 -18 -19 -20 21 0
-9 17 -18 -19 20 -21 0
-9 17 -18 19 -20 -21 0
-9 17 18 -19 -20 -21 0
-9 17 18 19 20 0
-9 17 18 19 21 0
-9 17 18 20 21 0
-9 17 19 20 21 0
-9 18 19 20 21 0
9 -17 -18 -19 -20 21 0
9 -17 -18 -19 20 -21 0
9 -17 -18 19 -20 -21 0
9 -17 -18 19 20 21 0
9 -17 18 -19 -20 -21 0
9 -17 18 -19 20 21 0
9 -17 18 19 -20 21 0
9 -17 18 19 20 -21 0
9 17 -18 -19 -20 -21 0
9 17 -18 -19 20 21 0
9 17 -18 19 -20 21 0
9 17 -18 19 20 -21 0
9 17 18 -19 -20 21 0
9 17 18 -19 20 -21 0
9 17 18 19 -20 -21 0
-10 -18 -19 -20 21 0
-10 -18 -19 20 -21 0
-10 -18 19 -20 -21 0
-10 18 -19 -20 -21 0
-10 18 19 20 21 0
-10 18 19 20 0
-10 18 19 21 0
-10 18 20 21 0
-10 19 20 21 0
10 -18 -19 -20 -21 0
10 -18 -19 20 21 0
10 -18 19 -20 21 0
10 -18 19 20 -21 0
10 18 -19 -20 21 0
10 18 -19 20 -21 0
10 18 19 -20 -21 0
-11 -19 -20 -21 0
-11 19 20 21 0
-11 19 20 0
-11 19 21 0
-11 20 21 0
11 -19 -20 21 0
11 -19 20 -21 0
11 19 -20 -21 0
-20 -21 0
-2 -3 0
-12 -2 -3 -4 0
-12 2 3 0
-12 2 4 0
-12 3 4 0
-12 2 3 4 0
12 -2 -3 4 0
12 -2 3 -4 0
12 2 -3 -4 0
-13 -2 -3 -4 5 0
-13 -2 -3 4 -5 0
-13 -2 3 -4 -5 0
-13 2 -3 -4 -5 0
-13 2 3 4 0
-13 2 3 5 0
-13 2 4 5 0
-13 3 4 5 0
-13 2 3 4 5 0
13 -2 -3 -4 -5 0
13 -2 -3 4 5 0
13 -2 3 -4 5 0
13 -2 3 4 -5 0
13 2 -3 -4 5 0
13 2 -3 4 -5 0
13 2 3 -4 -5 0
-14 -2 -3 -4 -5 -6 0
-14 -2 -3 -4 5 6 0
-14 -2 -3 4 -5 6 0
-14 -2 -3 4 5 -6 0
-14 -2 3 -4 -5 6 0
-14 -2 3 -4 5 -6 0
-14 -2 3 4 -5 -6 0
-14 2 -3 -4 -5 6 0
-14 2 -3 -4 5 -6 0
-14 2 -3 4 -5 -6 0
-14 2 3 -4 -5 -6 0
-14 2 3 4 5 0
-14 2 3 4 6 0
-14 2 3 5 6 0
-14 2 4 5 6 0
-14 3 4 5 6 0
14 -2 -3 -4 -5 6 0
14 -2 -3 -4 5 -6 0
14 -2 -3 4 -5 -6 0
14 -2 -3 4 5 6 0
14 -2 3 -4 -5 -6 0
14 -2 3 -4 5 6 0
14 -2 3 4 -5 6 0
14 -2 3 4 5 -6 0
14 2 -3 -4 -5 -6 0
14 2 -3 -4 5 6 0
14 2 -3 4 -5 6 0
14 2 -3 4 5 -6 0
14 2 3 -4 -5 6 0
14 2 3 -4 5 -6 0
14 2 3 4 -5 -6 0
-15 -3 -4 -5 -6 -7 0
-15 -3 -4 -5 6 7 0
-15 -3 -4 5 -6 7 0
-15 -3 -4 5 6 -7 0
-15 -3 4 -5 -6 7 0
-15 -3 4 -5 6 -7 0
-15 -3 4 5 -6 -7 0
-15 3 -4 -5 -6 7 0
-15 3 -4 -5 6 -7 0
-15 3 -4 5 -6 -7 0
-15 3 4 -5 -6 -7 0
-15 3 4 5 6 0
-15 3 4 5 7 0
-15 3 4 6 7 0
-15 3 5 6 7 0
-15 4 5 6 7 0
15 -3 -4 -5 -6 7 0
15 -3 -4 -5 6 -7 0
15 -3 -4 5 -6 -7 0
15 -3 -4 5 6 7 0
15 -3 4 -5 -6 -7 0
15 -3 4 -5 6 7 0
15 -3 4 5 -6 7 0
15 -3 4 5 6 -7 0
15 3 -4 -5 -6 -7 0
15 3 -4 -5 6 7 0
15 3 -4 5 -6 7 0
15 3 -4 5 6 -7 0
15 3 4 -5 -6 7 0
15 3 4 -5 6 -7 0
15 3 4 5 -6 -7 0
-16 -4 -5 -6 -7 -8 0
-16 -4 -5 -6 7 8 0
-16 -4 -5 6 -7 8 0
-16 -4 -5 6 7 -8 0
-16 -4 5 -6 -7 8 0
-16 -4 5 -6 7 -8 0
-16 -4 5 6 -7 -8 0
-16 4 -5 -6 -7 8 0
-16 4 -5 -6 7 -8 0
-16 4 -5 6 -7 -8 0
-16 4 5 -6 -7 -8 0
-16 4 5 6 7 0
-16 4 5 6 8 0
-16 4 5 7 8 0
-16 4 6 7 8 0
-16 5 6 7 8 0
16 -4 -5 -6 -7 8 0
16 -4 -5 -6 7 -8 0
16 -4 -5 6 -7 -8 0
16 -4 -5 6 7 8 0
16 -4 5 -6 -7 -8 0
16 -4 5 -6 7 8 0
16 -4 5 6 -7 8 0
16 -4 5 6 7 -8 0
16 4 -5 -6 -7 -8 0
16 4 -5 -6 7 8 0
16 4 -5 6 -7 8 0
16 4 -5 6 7 -8 0
16 4 5 -6 -7 8 0
16 4 5 -6 7 -8 0
16 4 5 6 -7 -8 0
-17 -5 -6 -7 -8 -9 0
-17 -5 -6 -7 8 9 0
-17 -5 -6 7 -8 9 0
-17 -5 -6 7 8 -9 0
-17 -5 6 -7 -8 9 0
-17 -5 6 -7 8 -9 0
-17 -5 6 7 -8 -9 0
-17 5 -6 -7 -8 9 0
-17 5 -6 -7 8 -9 0
-17 5 -6 7 -8 -9 0
-17 5 6 -7 -8 -9 0
-17 5 6 7 8 0
-17 5 6 7 9 0
-17 5 6 8 9 0
-17 5 7 8 9 0
-17 6 7 8 9 0
17 -5 -6 -7 -8 9 0
17 -5 -6 -7 8 -9 0
17 -5 -6 7 -8 -9 0
17 -5 -6 7 8 9 0
17 -5 6 -7 -8 -9 0
17 -5 6 -7 8 9 0
17 -5 6 7 -8 9 0
17 -5 6 7 8 -9 0
17 5 -6 -7 -8 -9 0
17 5 -6 -7 8 9 0
17 5 -6 7 -8 9 0
17 5 -6 7 8 -9 0
17 5 6 -7 -8 9 0
17 5 6 -7 8 -9 0
17 5 6 7 -8 -9 0
-18 -6 -7 -8 -9 -10 0
-18 -6 -7 -8 9 10 0
-18 -6 -7 8 -9 10 0
-18 -6 -7 8 9 -10 0
-18 -6 7 -8 -9 10 0
-18 -6 7 -8 9 -10 0
-18 -6 7 8 -9 -10 0
-18 6 -7 -8 -9 10 0
-18 6 -7 -8 9 -10 0
-18 6 -7 8 -9 -10 0
-18 6 7 -8 -9 -10 0
-18 6 7 8 9 0
-18 6 7 8 10 0
-18 6 7 9 10 0
-18 6 8 9 10 0
-18 7 8 9 10 0
18 -6 -7 -8 -9 10 0
18 -6 -7 -8 9 -10 0
18 -6 -7 8 -9 -10 0
18 -6 -7 8 9 10 0
18 -6 7 -8 -9 -10 0
18 -6 7 -8 9 10 0
18 -6 7 8 -9 10 0
18 -6 7 8 9 -10 0
18 6 -7 -8 -9 -10 0
18 6 -7 -8 9 10 0
18 6 -7 8 -9 10 0
18 6 -7 8 9 -10 0
18 6 7 -8 -9 10 0
18 6 7 -8 9 -10 0
18 6 7 8 -9 -10 0
-19 -7 -8 -9 -10 -11 0
-19 -7 -8 -9 10 11 0
-19 -7 -8 9 -10 11 0
-19 -7 -8 9 10 -11 0
-19 -7 8 -9 -10 11 0
-19 -7 8 -9 10 -11 0
-19 -7 8 9 -10 -11 0
-19 7 -8 -9 -10 11 0
-19 7 -8 -9 10 -11 0
-19 7 -8 9 -10 -11 0
-19 7 8 -9 -10 -11 0
-19 7 8 9 10 0
-19 7 8 9 11 0
-19 7 8 10 11 0
-19 7 9 10 11 0
-19 8 9 10 11 0
19 -7 -8 -9 -10 11 0
19 -7 -8 -9 10 -11 0
19 -7 -8 9 -10 -11 0
19 -7 -8 9 10 11 0
19 -7 8 -9 -10 -11 0
19 -7 8 -9 10 11 0
19 -7 8 9 -10 11 0
19 -7 8 9 10 -11 0
19 7 -8 -9 -10 -11 0
19 7 -8 -9 10 11 0
19 7 -8 9 -10 11 0
19 7 -8 9 10 -11 0
19 7 8 -9 -10 11 0
19 7 8 -9 10 -11 0
19 7 8 9 -10 -11 0
-20 -8 -9 -10 11 0
-20 -8 -9 10 -11 0
-20 -8 9 -10 -11 0
-20 8 -9 -10 -11 0
-20 8 9 10 11 0
-20 8 9 10 0
-20 8 9 11 0
-20 8 10 11 0
-20 9 10 11 0
20 -8 -9 -10 -11 0
20 -8 -9 10 11 0
20 -8 9 -10 11 0
20 -8 9 10 -11 0
20 8 -9 -10 11 0
20 8 -9 10 -11 0
20 8 9 -10 -11 0
-21 -9 -10 -11 0
-21 9 10 11 0
-21 9 10 0
-21 9 11 0
-21 10 11 0
21 -9 -10 11 0
21 -9 10 -11 0
21 9 -10 -11 0
-10 -11 0
-22 -2 -12 0
22 -2 12 0
22 2 -12 0
-22 2 12 0
-23 -3 -13 0
23 -3 13 0
23 3 -13 0
-23 3 13 0
-24 -4 -14 0
24 -4 14 0
24 4 -14 0
-24 4 14 0
-25 -5 -15 0
25 -5 15 0
25 5 -15 0
-25 5 15 0
-26 -6 -16 0
26 -6 16 0
26 6 -16 0
-26 6 16 0
-27 -7 -17 0
27 -7 17 0
27 7 -17 0
-27 7 17 0
-28 -8 -18 0
28 -8 18 0
28 8 -18 0
-28 8 18 0
-29 -9 -19 0
29 -9 19 0
29 9 -19 0
-29 9 19 0
-30 -10 -20 0
30 -10 20 0
30 10 -20 0
-30 10 20 0
-31 -11 -21 0
31 -11 21 0
31 11 -21 0
-31 11 21 0
22 23 24 25 26 27 28 29 30 31 0
2 3 4 5 6 7 8 9 10 11 12 13 14 15 16 17 18 19 20 21 0
